NAME : XML100_1342_07
DIMENSION : 101
NB_CLUSTERS : 3
CLUSTERING_ALG : DBSCAN
CLUSTERING_PARAMS : eps(170), minSamples(3)
CLUSTERS
1 0
2 1 2 3 5 7 8 9 10 11 12 13 14 15 16 17 19 20 21 22 23 24 25 26 28 30 31 33 34 35 36 37 38 40 42 43 44 45 47 48 49 50 51 52 53 54 55 56 58 59 61 62 64 65 66 67 68 69 70 71 72 73 75 76 77 78 79 80 81 82 83 84 85 86 87 88 89 90 91 92 93 94 95 96 97 98 99 100
3 4 6 18 27 29 32 39 41 46 57 60 63 74
EOF